
(set-logic HORN)
(declare-fun Z_1938 () Int)
(declare-fun S_431 (Int) Int)
(declare-fun Z_1936 () Int)
(declare-fun S_430 (Int) Int)
(declare-fun diseqInt (Int Int) Bool)
(declare-fun unS_641 (Int Int) Bool)
(declare-fun isZ_398 (Int) Bool)
(declare-fun isS_398 (Int) Bool)
(assert (forall ((x_54254 Int))
	(unS_641 x_54254 (S_431 x_54254))))
(assert (isZ_398 Z_1938))
(assert (forall ((x_54256 Int))
	(isS_398 (S_431 x_54256))))
(assert (forall ((x_54257 Int))
	(diseqInt Z_1938 (S_431 x_54257))))
(assert (forall ((x_54258 Int))
	(diseqInt (S_431 x_54258) Z_1938)))
(assert (forall ((x_54259 Int) (x_54260 Int))
	(=> (diseqInt x_54259 x_54260) (diseqInt (S_431 x_54259) (S_431 x_54260)))))
(declare-fun add_346 (Int Int Int) Bool)
(declare-fun minus_341 (Int Int Int) Bool)
(declare-fun le_320 (Int Int) Bool)
(declare-fun ge_320 (Int Int) Bool)
(declare-fun lt_340 (Int Int) Bool)
(declare-fun gt_323 (Int Int) Bool)
(declare-fun mult_320 (Int Int Int) Bool)
(declare-fun div_320 (Int Int Int) Bool)
(declare-fun mod_322 (Int Int Int) Bool)
(assert (forall ((y_2173 Int))
	(add_346 y_2173 Z_1938 y_2173)))
(assert (forall ((x_54230 Int) (y_2173 Int) (r_393 Int))
	(=> (add_346 r_393 x_54230 y_2173) (add_346 (S_431 r_393) (S_431 x_54230) y_2173))))
(assert (forall ((y_2173 Int))
	(minus_341 Z_1938 Z_1938 y_2173)))
(assert (forall ((x_54230 Int) (y_2173 Int) (r_393 Int))
	(=> (minus_341 r_393 x_54230 y_2173) (minus_341 (S_431 r_393) (S_431 x_54230) y_2173))))
(assert (forall ((y_2173 Int))
	(le_320 Z_1938 y_2173)))
(assert (forall ((x_54230 Int) (y_2173 Int))
	(=> (le_320 x_54230 y_2173) (le_320 (S_431 x_54230) (S_431 y_2173)))))
(assert (forall ((y_2173 Int))
	(ge_320 y_2173 Z_1938)))
(assert (forall ((x_54230 Int) (y_2173 Int))
	(=> (ge_320 x_54230 y_2173) (ge_320 (S_431 x_54230) (S_431 y_2173)))))
(assert (forall ((y_2173 Int))
	(lt_340 Z_1938 (S_431 y_2173))))
(assert (forall ((x_54230 Int) (y_2173 Int))
	(=> (lt_340 x_54230 y_2173) (lt_340 (S_431 x_54230) (S_431 y_2173)))))
(assert (forall ((y_2173 Int))
	(gt_323 (S_431 y_2173) Z_1938)))
(assert (forall ((x_54230 Int) (y_2173 Int))
	(=> (gt_323 x_54230 y_2173) (gt_323 (S_431 x_54230) (S_431 y_2173)))))
(assert (forall ((y_2173 Int))
	(mult_320 Z_1938 Z_1938 y_2173)))
(assert (forall ((x_54230 Int) (y_2173 Int) (r_393 Int) (z_1939 Int))
	(=> (and (mult_320 r_393 x_54230 y_2173) (add_346 z_1939 r_393 y_2173)) (mult_320 z_1939 (S_431 x_54230) y_2173))))
(assert (forall ((x_54230 Int) (y_2173 Int))
	(=> (lt_340 x_54230 y_2173) (div_320 Z_1938 x_54230 y_2173))))
(assert (forall ((x_54230 Int) (y_2173 Int) (r_393 Int) (z_1939 Int))
	(=> (and (ge_320 x_54230 y_2173) (minus_341 z_1939 x_54230 y_2173) (div_320 r_393 z_1939 y_2173)) (div_320 (S_431 r_393) x_54230 y_2173))))
(assert (forall ((x_54230 Int) (y_2173 Int))
	(=> (lt_340 x_54230 y_2173) (mod_322 x_54230 x_54230 y_2173))))
(assert (forall ((x_54230 Int) (y_2173 Int) (r_393 Int) (z_1939 Int))
	(=> (and (ge_320 x_54230 y_2173) (minus_341 z_1939 x_54230 y_2173) (mod_322 r_393 z_1939 y_2173)) (mod_322 r_393 x_54230 y_2173))))
(declare-datatypes ((list_225 0)) (((nil_255) (cons_225 (head_450 Int) (tail_450 list_225)))))
(declare-fun diseqlist_225 (list_225 list_225) Bool)
(declare-fun head_451 (Int list_225) Bool)
(declare-fun tail_451 (list_225 list_225) Bool)
(declare-fun isnil_255 (list_225) Bool)
(declare-fun iscons_225 (list_225) Bool)
(assert (forall ((x_54232 Int) (x_54233 list_225))
	(head_451 x_54232 (cons_225 x_54232 x_54233))))
(assert (forall ((x_54232 Int) (x_54233 list_225))
	(tail_451 x_54233 (cons_225 x_54232 x_54233))))
(assert (isnil_255 nil_255))
(assert (forall ((x_54235 Int) (x_54236 list_225))
	(iscons_225 (cons_225 x_54235 x_54236))))
(assert (forall ((x_54237 Int) (x_54238 list_225))
	(diseqlist_225 nil_255 (cons_225 x_54237 x_54238))))
(assert (forall ((x_54239 Int) (x_54240 list_225))
	(diseqlist_225 (cons_225 x_54239 x_54240) nil_255)))
(assert (forall ((x_54241 Int) (x_54242 list_225) (x_54243 Int) (x_54244 list_225))
	(=> (diseqInt x_54241 x_54243) (diseqlist_225 (cons_225 x_54241 x_54242) (cons_225 x_54243 x_54244)))))
(assert (forall ((x_54241 Int) (x_54242 list_225) (x_54243 Int) (x_54244 list_225))
	(=> (diseqlist_225 x_54242 x_54244) (diseqlist_225 (cons_225 x_54241 x_54242) (cons_225 x_54243 x_54244)))))
(declare-fun diseqInt (Int Int) Bool)
(declare-fun projS_155 (Int Int) Bool)
(declare-fun isZ_397 (Int) Bool)
(declare-fun isS_397 (Int) Bool)
(assert (forall ((x_54246 Int))
	(projS_155 x_54246 (S_430 x_54246))))
(assert (isZ_397 Z_1936))
(assert (forall ((x_54248 Int))
	(isS_397 (S_430 x_54248))))
(assert (forall ((x_54249 Int))
	(diseqInt Z_1936 (S_430 x_54249))))
(assert (forall ((x_54250 Int))
	(diseqInt (S_430 x_54250) Z_1936)))
(assert (forall ((x_54251 Int) (x_54252 Int))
	(=> (diseqInt x_54251 x_54252) (diseqInt (S_430 x_54251) (S_430 x_54252)))))
(declare-fun length_42 (Int list_225) Bool)
(assert (forall ((x_54218 Int) (y_2170 Int) (xs_616 list_225))
	(=> (length_42 x_54218 xs_616) (length_42 (S_430 x_54218) (cons_225 y_2170 xs_616)))))
(assert (length_42 Z_1936 nil_255))
(declare-fun x_54213 (list_225 list_225 list_225) Bool)
(assert (forall ((x_54221 list_225) (z_1937 Int) (xs_617 list_225) (y_2171 list_225))
	(=> (x_54213 x_54221 xs_617 y_2171) (x_54213 (cons_225 z_1937 x_54221) (cons_225 z_1937 xs_617) y_2171))))
(assert (forall ((x_54222 list_225))
	(x_54213 x_54222 nil_255 x_54222)))
(declare-fun rev_7 (list_225 list_225) Bool)
(assert (forall ((x_54223 list_225) (x_54224 list_225) (y_2172 Int) (xs_618 list_225))
	(=> (and (rev_7 x_54224 xs_618) (x_54213 x_54223 x_54224 (cons_225 y_2172 nil_255))) (rev_7 x_54223 (cons_225 y_2172 xs_618)))))
(assert (rev_7 nil_255 nil_255))
(assert (forall ((x_54227 list_225) (x_54228 Int) (x_54229 Int) (x_54216 list_225))
	(=> (and true (diseqInt x_54228 x_54229) (rev_7 x_54227 x_54216) (length_42 x_54228 x_54227) (length_42 x_54229 x_54216)) false)))
(check-sat)
